c File: instances/30_0.75_3.col
c
c Description: Random graph of size 30 vertices and P(0.7500000000000001) of edges between any two vertices.
p col 30 435
e 1 4
e 1 5
e 1 6
e 1 7
e 1 8
e 1 9
e 1 10
e 1 11
e 1 12
e 1 13
e 1 14
e 1 15
e 1 16
e 1 18
e 1 19
e 1 20
e 1 22
e 1 23
e 1 24
e 1 25
e 1 26
e 1 28
e 1 29
e 1 30
e 2 3
e 2 4
e 2 5
e 2 6
e 2 7
e 2 9
e 2 10
e 2 12
e 2 13
e 2 14
e 2 15
e 2 18
e 2 20
e 2 22
e 2 24
e 2 25
e 2 26
e 2 28
e 2 29
e 2 30
e 3 4
e 3 6
e 3 7
e 3 8
e 3 10
e 3 11
e 3 12
e 3 13
e 3 15
e 3 16
e 3 17
e 3 18
e 3 19
e 3 20
e 3 22
e 3 23
e 3 24
e 3 25
e 3 26
e 3 27
e 3 28
e 3 29
e 4 5
e 4 6
e 4 7
e 4 10
e 4 11
e 4 12
e 4 13
e 4 14
e 4 15
e 4 17
e 4 18
e 4 21
e 4 22
e 4 23
e 4 24
e 4 25
e 4 28
e 4 29
e 5 6
e 5 7
e 5 8
e 5 11
e 5 12
e 5 13
e 5 15
e 5 16
e 5 17
e 5 18
e 5 19
e 5 20
e 5 25
e 5 26
e 5 27
e 5 28
e 6 7
e 6 9
e 6 10
e 6 14
e 6 15
e 6 17
e 6 18
e 6 19
e 6 20
e 6 21
e 6 23
e 6 24
e 6 25
e 6 26
e 6 27
e 6 28
e 6 29
e 6 30
e 7 8
e 7 9
e 7 10
e 7 11
e 7 12
e 7 13
e 7 14
e 7 15
e 7 17
e 7 18
e 7 19
e 7 20
e 7 23
e 7 24
e 7 28
e 7 30
e 8 10
e 8 11
e 8 12
e 8 13
e 8 14
e 8 16
e 8 18
e 8 19
e 8 20
e 8 21
e 8 22
e 8 23
e 8 25
e 8 26
e 8 28
e 8 29
e 8 30
e 9 13
e 9 14
e 9 15
e 9 16
e 9 18
e 9 19
e 9 20
e 9 26
e 9 30
e 10 13
e 10 14
e 10 15
e 10 16
e 10 19
e 10 22
e 10 23
e 10 25
e 10 26
e 10 27
e 10 28
e 10 29
e 10 30
e 11 12
e 11 13
e 11 15
e 11 16
e 11 17
e 11 18
e 11 19
e 11 20
e 11 21
e 11 23
e 11 24
e 11 25
e 11 26
e 11 28
e 11 29
e 11 30
e 12 13
e 12 15
e 12 17
e 12 18
e 12 19
e 12 20
e 12 21
e 12 22
e 12 24
e 12 25
e 12 27
e 12 28
e 12 29
e 12 30
e 13 14
e 13 15
e 13 19
e 13 22
e 13 23
e 13 26
e 13 28
e 13 30
e 14 15
e 14 16
e 14 17
e 14 18
e 14 19
e 14 21
e 14 22
e 14 23
e 14 24
e 14 25
e 14 27
e 14 28
e 14 29
e 14 30
e 15 16
e 15 17
e 15 18
e 15 19
e 15 21
e 15 23
e 15 26
e 15 27
e 15 28
e 15 29
e 16 17
e 16 18
e 16 19
e 16 20
e 16 21
e 16 25
e 16 26
e 16 27
e 16 30
e 17 18
e 17 20
e 17 21
e 17 23
e 17 24
e 17 25
e 17 26
e 17 27
e 17 28
e 17 30
e 18 19
e 18 20
e 18 21
e 18 22
e 18 23
e 18 24
e 18 25
e 18 27
e 18 28
e 18 29
e 19 25
e 19 27
e 19 28
e 20 21
e 20 23
e 20 24
e 20 25
e 20 27
e 20 29
e 20 30
e 21 22
e 21 23
e 21 24
e 21 27
e 21 29
e 21 30
e 22 23
e 22 24
e 22 25
e 22 28
e 22 29
e 23 24
e 23 25
e 23 26
e 23 27
e 23 29
e 23 30
e 24 26
e 24 27
e 24 28
e 24 29
e 25 26
e 25 27
e 25 28
e 25 29
e 25 30
e 26 27
e 26 29
e 26 30
e 27 29
e 28 30